NAME : portcgen-22-29
COMMENT : portcgen N=22, seed=29
TYPE : TSP
DIMENSION : 22
EDGE_WEIGHT_TYPE : EUC_2D
NODE_COORD_SECTION
1 -274499 -186816
2 -18226 487887
3 458135 -36248
4 244270 -89451
5 -144258 -100123
6 -252631 90823
7 -318619 -400840
8 -43131 -45422
9 64463 -119684
10 -291865 -291536
11 -339949 147283
12 230400 -68467
13 125552 397160
14 142585 98611
15 197602 349660
16 -23596 181176
17 -57767 -162437
18 -121742 -10820
19 -135832 57372
20 77471 148716
21 95558 527776
22 -365762 155839
